variable Ttarget equal 2
variable timestep equal 0.001
variable Tdamp equal 0.1
variable change_box_init equal 1
variable equil_lx equal 42.8973800129511
variable equil_ly equal 42.94632967695204
variable equil_lz equal 42.79250034055362
variable N_deform equal 1
variable ex_trate equal -4.000000000000001e-06
variable ey_trate equal 1e-05
variable ez_trate equal -4.000000000000001e-06
variable total_steps_1 equal 1000000
variable total_steps_2 equal 4000000
variable thermo_step equal 100
variable dump_freq equal 400
variable dumpdir string /home/yfwang09/Codes/MLmat/MetallicGlass/data/natom-5000/qrate-2.8e+07/sample_0/erate-1.0e+07/strain_0-4.0/T2K/dump.3
variable restart_freq equal 0
variable restart_file_1 string /home/yfwang09/Codes/MLmat/MetallicGlass/data/natom-5000/qrate-2.8e+07/sample_0/erate-1.0e+07/strain_0-4.0/T2K/dump.3/restart.3.1
variable restart_file_2 string /home/yfwang09/Codes/MLmat/MetallicGlass/data/natom-5000/qrate-2.8e+07/sample_0/erate-1.0e+07/strain_0-4.0/T2K/dump.3/restart.3.2
read_restart /home/yfwang09/Codes/MLmat/MetallicGlass/data/natom-5000/qrate-2.8e+07/sample_0/erate-1.0e+07/strain_0-4.0/T2K/dump.2/restart.2.2
pair_style eam/fs
pair_coeff * *  /home/yfwang09/Codes/MLmat/MetallicGlass/lammps_scripts/CuZr.eam.fs Cu Zr
