variable istart equal 0
variable iend equal 400
variable unloading equal 1
variable loadingdir string /home/yfwang09/Codes/MLmat/MetallicGlass/data/natom-5000/qrate-2.8e+07/sample_0/erate-1.0e+07/strain_0-4.0/T2K/dump.3
variable etol_minimize equal 0.0
variable ftol_minimize equal 1e-11
variable maxiter_minimize equal 100000000
variable maxeval_minimize equal 10000000000
variable write_restart equal 1
variable restart_file string /home/yfwang09/Codes/MLmat/MetallicGlass/data/natom-5000/qrate-2.8e+07/sample_0/erate-1.0e+07/strain_0-4.0/T2K/dump.3u_0.6000-0.4.0u_0.1600-0/relaxed.prev.restart
variable dump_freq equal 400
variable logdir string /home/yfwang09/Codes/MLmat/MetallicGlass/data/natom-5000/qrate-2.8e+07/sample_0/erate-1.0e+07/strain_0-4.0/T2K/log.3u_0.6000-0.4.0u_0.1600-0
variable inputdir string /home/yfwang09/Codes/MLmat/MetallicGlass/data/natom-5000/qrate-2.8e+07/sample_0/erate-1.0e+07/strain_0-4.0/T2K/dump.3
variable relaxdir string /home/yfwang09/Codes/MLmat/MetallicGlass/data/natom-5000/qrate-2.8e+07/sample_0/erate-1.0e+07/strain_0-4.0/T2K/dump.3u_0.6000-0.4.0u_0.1600-0
read_restart ${restart_file}
pair_style eam/fs
pair_coeff * *  /home/yfwang09/Codes/MLmat/MetallicGlass/lammps_scripts/CuZr.eam.fs Cu Zr
